37
Lattice="7.65796644025031 0.0 0.0 3.828983220125155 6.6319934785854535 0.0 0.0 0.0 26.252703415323648" Properties=species:S:1:pos:R:3:move_mask:L:1:tags:I:1:energies:R:1:forces:R:3 energy=6.39310137580388 free_energy=6.39310137580388 stress="0.005190457132281926 -2.64047366408956e-18 -1.4636100778184362e-17 -2.64047366408956e-18 0.0051904571322818295 2.49629712345482e-17 -1.4636100778184362e-17 2.49629712345482e-17 0.0020029038285799467" pbc="T T F"
Cu       0.00000000       0.00000000      10.00000000  F        4       0.35056665      -0.00003716      -0.00002145       0.11844302
Cu       2.55265548       0.00000000      10.00000000  F        4       0.35057343      -0.00000000       0.00003037       0.11831511
Cu       5.10531096       0.00000000      10.00000000  F        4       0.35056665       0.00003716      -0.00002145       0.11844302
Cu       1.27632774       2.21066449      10.00000000  F        4       0.35057343       0.00002630      -0.00001519       0.11831511
Cu       3.82898322       2.21066449      10.00000000  F        4       0.35057343      -0.00002630      -0.00001519       0.11831511
Cu       6.38163870       2.21066449      10.00000000  F        4       0.35054403       0.00000000      -0.00000913       0.11833368
Cu       2.55265548       4.42132899      10.00000000  F        4       0.35056665       0.00000000       0.00004291       0.11844302
Cu       5.10531096       4.42132899      10.00000000  F        4       0.35054403      -0.00000791       0.00000457       0.11833368
Cu       7.65796644       4.42132899      10.00000000  F        4       0.35054403       0.00000791       0.00000457       0.11833368
Cu       1.27632774       0.73688816      12.08423447  F        3       0.00208818       0.00304423       0.00175759      -0.09735078
Cu       3.82898322       0.73688816      12.08423447  F        3       0.00208818      -0.00304423       0.00175759      -0.09735078
Cu       6.38163870       0.73688816      12.08423447  F        3       0.00227831      -0.00000000       0.00772968      -0.09741378
Cu       2.55265548       2.94755266      12.08423447  F        3       0.00208818       0.00000000      -0.00351517      -0.09735078
Cu       5.10531096       2.94755266      12.08423447  F        3       0.00278215      -0.00418823      -0.00241808      -0.11057233
Cu       7.65796644       2.94755266      12.08423447  F        3       0.00278215       0.00418823      -0.00241808      -0.11057233
Cu       3.82898322       5.15821715      12.08423447  F        3       0.00227831       0.00669410      -0.00386484      -0.09741378
Cu       6.38163870       5.15821715      12.08423447  F        3       0.00278215       0.00000000       0.00483616      -0.11057233
Cu       8.93429418       5.15821715      12.08423447  F        3       0.00227831      -0.00669410      -0.00386484      -0.09741378
Cu       0.00282394       1.47551437      14.15444043  T        2       0.00379763      -0.01607140      -0.01093032      -0.02014847
Cu       2.55265548       1.47377633      14.15695971  T        2       0.00101203      -0.00000000      -0.00000000       0.00910777
Cu       5.10248702       1.47551437      14.15444043  T        2       0.00379763       0.01607140      -0.01093032      -0.02014847
Cu       1.27623452       3.68112620      14.15444043  T        2       0.00379763       0.00143023       0.01938340      -0.02014847
Cu       3.82907644       3.68112620      14.15444043  T        2       0.00379763      -0.00143023       0.01938340      -0.02014847
Cu       6.38163870       3.68444082      14.14855764  T        2       0.00504286       0.00000000       0.00000000       0.00084163
Cu       2.55265548       5.89510531      14.14990387  T        2       0.00337330      -0.00000000      -0.00000000       0.00096291
Cu       5.10822811       5.89668189      14.15444043  T        2       0.00379763      -0.01750163      -0.00845308      -0.02014847
Cu       7.65504929       5.89668189      14.15444043  T        2       0.00379763       0.01750163      -0.00845308      -0.02014847
Cu       0.00086601       0.00049999      16.20674940  T        1       0.34382328      -0.00321419      -0.00185572       0.01186887
Cu       2.55265548      -0.00041104      16.22085998  T        1       0.22377346      -0.00000000       0.01126475      -0.02610850
Cu       5.10444495       0.00049999      16.20674940  T        1       0.34382328       0.00321419      -0.00185572       0.01186887
Cu       1.27597177       2.21087001      16.22085998  T        1       0.22377346       0.00975556      -0.00563238      -0.02610850
Cu       3.82933919       2.21087001      16.22085998  T        1       0.22377346      -0.00975556      -0.00563238      -0.02610850
Cu       6.38163870       2.21098143      16.20552055  T        1       0.34737950       0.00000000       0.00162267       0.01282559
Cu       2.55265548       4.42032900      16.20674940  T        1       0.34382328       0.00000000       0.00371143       0.01186887
Cu       5.10558543       4.42117052      16.20552055  T        1       0.34737950       0.00140527      -0.00081133       0.01282559
Cu       7.65769197       4.42117052      16.20552055  T        1       0.34737950      -0.00140527      -0.00081133       0.01282559
H        2.55265548       1.47377633      17.90276763  T        0       0.43946043       0.00000000       0.00000000      -0.03504413
